p cnf 195 216
-1 2 18 22 24 25 26 29 30 31 33 58 62 75 92 93 95 113 118 168 -169 -173 -174 -175 -176 -177 -178 -179 -180 -181 -182 -183 -184 -185 -186 -187 -190 -191 -192 -193 -194 0 
-2 1 18 22 24 25 26 29 30 31 33 58 62 75 92 93 95 113 118 168 -169 -173 -174 -175 -176 -177 -178 -179 -180 -181 -182 -183 -184 -185 -186 -187 -190 -191 -192 -193 -194 0 
-3 7 148 -4 48 136 150 154 -5 -6 49 155 168 -169 -173 -174 -175 -176 -177 -178 -179 -180 -181 -182 -183 -184 -185 -186 -187 -190 -191 -192 -193 -194 0 
-7 3 148 168 -169 -173 -174 -175 -176 -177 -178 -179 -180 -181 -182 -183 -184 -185 -186 -187 -190 -191 -192 -193 -194 0 
-8 89 116 -9 168 -169 -173 -174 -175 -176 -177 -178 -179 -180 -181 -182 -183 -184 -185 -186 -187 -190 -191 -192 -193 -194 0 
-10 168 -169 -173 -174 -175 -176 -177 -178 -179 -180 -181 -182 -183 -184 -185 -186 -187 -190 -191 -192 -193 -194 0 
-10 169 -173 -174 -175 -176 -177 -178 -179 -180 -181 -182 -183 -184 -185 -186 -187 -190 -191 -192 -193 -194 0 
-11 170 -169 -173 -174 -175 -176 -177 -178 -179 -180 -181 -182 -183 -184 -185 -186 -187 -190 -191 -192 -193 -194 -50 -63 -78 -121 0 
-8 89 116 168 -169 -173 -174 -175 -176 -177 -178 -179 -180 -181 -182 -183 -184 -185 -186 -187 -190 -191 -192 -193 -194 0 
-12 21 114 157 162 170 -169 -173 -174 -175 -176 -177 -178 -179 -180 -181 -182 -183 -184 -185 -186 -187 -190 -191 -192 -193 -194 -50 -63 -78 -121 0 
-13 168 -169 -173 -174 -175 -176 -177 -178 -179 -180 -181 -182 -183 -184 -185 -186 -187 -190 -191 -192 -193 -194 0 
-14 36 84 170 -169 -173 -174 -175 -176 -177 -178 -179 -180 -181 -182 -183 -184 -185 -186 -187 -190 -191 -192 -193 -194 -50 -63 -78 -121 0 
-15 46 100 -16 168 -169 -173 -174 -175 -176 -177 -178 -179 -180 -181 -182 -183 -184 -185 -186 -187 -190 -191 -192 -193 -194 0 
-17 19 23 107 122 141 168 -169 -173 -174 -175 -176 -177 -178 -179 -180 -181 -182 -183 -184 -185 -186 -187 -190 -191 -192 -193 -194 0 
-18 1 2 22 24 25 26 29 30 31 33 58 62 75 92 93 95 113 118 168 -169 -173 -174 -175 -176 -177 -178 -179 -180 -181 -182 -183 -184 -185 -186 -187 -190 -191 -192 -193 -194 0 
-19 17 23 107 122 141 168 -169 -173 -174 -175 -176 -177 -178 -179 -180 -181 -182 -183 -184 -185 -186 -187 -190 -191 -192 -193 -194 0 
-20 135 168 -169 -173 -174 -175 -176 -177 -178 -179 -180 -181 -182 -183 -184 -185 -186 -187 -190 -191 -192 -193 -194 0 
-21 12 114 157 162 168 -169 -173 -174 -175 -176 -177 -178 -179 -180 -181 -182 -183 -184 -185 -186 -187 -190 -191 -192 -193 -194 0 
-22 1 2 18 24 25 26 29 30 31 33 58 62 75 92 93 95 113 118 168 -169 -173 -174 -175 -176 -177 -178 -179 -180 -181 -182 -183 -184 -185 -186 -187 -190 -191 -192 -193 -194 0 
-23 17 19 107 122 141 168 -169 -173 -174 -175 -176 -177 -178 -179 -180 -181 -182 -183 -184 -185 -186 -187 -190 -191 -192 -193 -194 0 
-24 1 2 18 22 25 26 29 30 31 33 58 62 75 92 93 95 113 118 170 -169 -173 -174 -175 -176 -177 -178 -179 -180 -181 -182 -183 -184 -185 -186 -187 -190 -191 -192 -193 -194 -50 -63 -78 -121 0 
-25 1 2 18 22 24 26 29 30 31 33 58 62 75 92 93 95 113 118 170 -169 -173 -174 -175 -176 -177 -178 -179 -180 -181 -182 -183 -184 -185 -186 -187 -190 -191 -192 -193 -194 -50 -63 -78 -121 0 
-26 1 2 18 22 24 25 29 30 31 33 58 62 75 92 93 95 113 118 170 -169 -173 -174 -175 -176 -177 -178 -179 -180 -181 -182 -183 -184 -185 -186 -187 -190 -191 -192 -193 -194 -50 -63 -78 -121 0 
-27 28 37 140 170 -169 -173 -174 -175 -176 -177 -178 -179 -180 -181 -182 -183 -184 -185 -186 -187 -190 -191 -192 -193 -194 -50 -63 -78 -121 0 
-25 1 2 18 22 24 26 29 30 31 33 58 62 75 92 93 95 113 118 168 -169 -173 -174 -175 -176 -177 -178 -179 -180 -181 -182 -183 -184 -185 -186 -187 -190 -191 -192 -193 -194 0 
-28 27 37 140 170 -169 -173 -174 -175 -176 -177 -178 -179 -180 -181 -182 -183 -184 -185 -186 -187 -190 -191 -192 -193 -194 -50 -63 -78 -121 0 
-24 1 2 18 22 25 26 29 30 31 33 58 62 75 92 93 95 113 118 168 -169 -173 -174 -175 -176 -177 -178 -179 -180 -181 -182 -183 -184 -185 -186 -187 -190 -191 -192 -193 -194 0 
-26 1 2 18 22 24 25 29 30 31 33 58 62 75 92 93 95 113 118 168 -169 -173 -174 -175 -176 -177 -178 -179 -180 -181 -182 -183 -184 -185 -186 -187 -190 -191 -192 -193 -194 0 
-27 28 37 140 168 -169 -173 -174 -175 -176 -177 -178 -179 -180 -181 -182 -183 -184 -185 -186 -187 -190 -191 -192 -193 -194 0 
-29 1 2 18 22 24 25 26 30 31 33 58 62 75 92 93 95 113 118 168 -169 -173 -174 -175 -176 -177 -178 -179 -180 -181 -182 -183 -184 -185 -186 -187 -190 -191 -192 -193 -194 0 
-30 1 2 18 22 24 25 26 29 31 33 58 62 75 92 93 95 113 118 168 -169 -173 -174 -175 -176 -177 -178 -179 -180 -181 -182 -183 -184 -185 -186 -187 -190 -191 -192 -193 -194 0 
-31 1 2 18 22 24 25 26 29 30 33 58 62 75 92 93 95 113 118 168 -169 -173 -174 -175 -176 -177 -178 -179 -180 -181 -182 -183 -184 -185 -186 -187 -190 -191 -192 -193 -194 0 
-32 90 133 168 -169 -173 -174 -175 -176 -177 -178 -179 -180 -181 -182 -183 -184 -185 -186 -187 -190 -191 -192 -193 -194 0 
-33 1 2 18 22 24 25 26 29 30 31 58 62 75 92 93 95 113 118 168 -169 -173 -174 -175 -176 -177 -178 -179 -180 -181 -182 -183 -184 -185 -186 -187 -190 -191 -192 -193 -194 0 
-34 40 45 -35 -3 7 148 171 -189 -195 0 
-36 14 84 172 -169 -173 -174 -175 -176 -177 -178 -179 -180 -181 -182 -183 -184 -185 -186 -187 -190 -191 -192 -193 -194 -119 -142 -158 -160 0 
-37 27 28 140 168 -169 -173 -174 -175 -176 -177 -178 -179 -180 -181 -182 -183 -184 -185 -186 -187 -190 -191 -192 -193 -194 0 
-38 101 144 164 170 -169 -173 -174 -175 -176 -177 -178 -179 -180 -181 -182 -183 -184 -185 -186 -187 -190 -191 -192 -193 -194 -50 -63 -78 -121 0 
-39 172 -169 -173 -174 -175 -176 -177 -178 -179 -180 -181 -182 -183 -184 -185 -186 -187 -190 -191 -192 -193 -194 -119 -142 -158 -160 0 
-40 34 45 168 -169 -173 -174 -175 -176 -177 -178 -179 -180 -181 -182 -183 -184 -185 -186 -187 -190 -191 -192 -193 -194 0 
-41 51 52 56 77 97 103 112 120 131 143 159 161 168 -169 -173 -174 -175 -176 -177 -178 -179 -180 -181 -182 -183 -184 -185 -186 -187 -190 -191 -192 -193 -194 0 
-42 168 -169 -173 -174 -175 -176 -177 -178 -179 -180 -181 -182 -183 -184 -185 -186 -187 -190 -191 -192 -193 -194 0 
-43 65 -15 46 100 170 -169 -173 -174 -175 -176 -177 -178 -179 -180 -181 -182 -183 -184 -185 -186 -187 -190 -191 -192 -193 -194 -50 -63 -78 -121 0 
-15 46 100 170 -169 -173 -174 -175 -176 -177 -178 -179 -180 -181 -182 -183 -184 -185 -186 -187 -190 -191 -192 -193 -194 -50 -63 -78 -121 0 
-44 -13 170 -169 -173 -174 -175 -176 -177 -178 -179 -180 -181 -182 -183 -184 -185 -186 -187 -190 -191 -192 -193 -194 -50 -63 -78 -121 0 
-45 34 40 168 -169 -173 -174 -175 -176 -177 -178 -179 -180 -181 -182 -183 -184 -185 -186 -187 -190 -191 -192 -193 -194 0 
-46 15 100 169 -173 -174 -175 -176 -177 -178 -179 -180 -181 -182 -183 -184 -185 -186 -187 -190 -191 -192 -193 -194 0 
-47 105 108 130 170 -169 -173 -174 -175 -176 -177 -178 -179 -180 -181 -182 -183 -184 -185 -186 -187 -190 -191 -192 -193 -194 -50 -63 -78 -121 0 
-3 7 148 -35 -48 4 136 150 154 -49 6 155 173 -169 -174 -175 -176 -177 -178 -179 -180 -181 -182 -183 -184 -185 -186 -187 -190 -191 -192 -193 -194 0 
-50 63 78 121 168 -169 -173 -174 -175 -176 -177 -178 -179 -180 -181 -182 -183 -184 -185 -186 -187 -190 -191 -192 -193 -194 0 
-51 41 52 56 77 97 103 112 120 131 143 159 161 174 -169 -173 -175 -176 -177 -178 -179 -180 -181 -182 -183 -184 -185 -186 -187 -190 -191 -192 -193 -194 0 
-52 41 51 56 77 97 103 112 120 131 143 159 161 168 -169 -173 -174 -175 -176 -177 -178 -179 -180 -181 -182 -183 -184 -185 -186 -187 -190 -191 -192 -193 -194 0 
-52 41 51 56 77 97 103 112 120 131 143 159 161 170 -169 -173 -174 -175 -176 -177 -178 -179 -180 -181 -182 -183 -184 -185 -186 -187 -190 -191 -192 -193 -194 -50 -63 -78 -121 0 
-53 76 -54 168 -169 -173 -174 -175 -176 -177 -178 -179 -180 -181 -182 -183 -184 -185 -186 -187 -190 -191 -192 -193 -194 0 
-55 99 110 156 173 -169 -174 -175 -176 -177 -178 -179 -180 -181 -182 -183 -184 -185 -186 -187 -190 -191 -192 -193 -194 0 
-56 41 51 52 77 97 103 112 120 131 143 159 161 175 -169 -173 -174 -176 -177 -178 -179 -180 -181 -182 -183 -184 -185 -186 -187 -190 -191 -192 -193 -194 0 
-32 90 133 169 -173 -174 -175 -176 -177 -178 -179 -180 -181 -182 -183 -184 -185 -186 -187 -190 -191 -192 -193 -194 0 
-57 87 170 -169 -173 -174 -175 -176 -177 -178 -179 -180 -181 -182 -183 -184 -185 -186 -187 -190 -191 -192 -193 -194 -50 -63 -78 -121 0 
-58 1 2 18 22 24 25 26 29 30 31 33 62 75 92 93 95 113 118 176 -169 -173 -174 -175 -177 -178 -179 -180 -181 -182 -183 -184 -185 -186 -187 -190 -191 -192 -193 -194 0 
-59 170 -169 -173 -174 -175 -176 -177 -178 -179 -180 -181 -182 -183 -184 -185 -186 -187 -190 -191 -192 -193 -194 -50 -63 -78 -121 0 
-60 61 64 67 68 85 125 126 174 -169 -173 -175 -176 -177 -178 -179 -180 -181 -182 -183 -184 -185 -186 -187 -190 -191 -192 -193 -194 0 
-61 60 64 67 68 85 125 126 170 -169 -173 -174 -175 -176 -177 -178 -179 -180 -181 -182 -183 -184 -185 -186 -187 -190 -191 -192 -193 -194 -50 -63 -78 -121 0 
-62 1 2 18 22 24 25 26 29 30 31 33 58 75 92 93 95 113 118 177 -169 -173 -174 -175 -176 -178 -179 -180 -181 -182 -183 -184 -185 -186 -187 -190 -191 -192 -193 -194 0 
-63 50 78 121 178 -169 -173 -174 -175 -176 -177 -179 -180 -181 -182 -183 -184 -185 -186 -187 -190 -191 -192 -193 -194 0 
-64 60 61 67 68 85 125 126 168 -169 -173 -174 -175 -176 -177 -178 -179 -180 -181 -182 -183 -184 -185 -186 -187 -190 -191 -192 -193 -194 0 
-65 43 -64 60 61 67 68 85 125 126 -9 168 -169 -173 -174 -175 -176 -177 -178 -179 -180 -181 -182 -183 -184 -185 -186 -187 -190 -191 -192 -193 -194 0 
-66 81 104 109 111 179 -169 -173 -174 -175 -176 -177 -178 -180 -181 -182 -183 -184 -185 -186 -187 -190 -191 -192 -193 -194 0 
-67 60 61 64 68 85 125 126 180 -169 -173 -174 -175 -176 -177 -178 -179 -181 -182 -183 -184 -185 -186 -187 -190 -191 -192 -193 -194 0 
-68 60 61 64 67 85 125 126 169 -173 -174 -175 -176 -177 -178 -179 -180 -181 -182 -183 -184 -185 -186 -187 -190 -191 -192 -193 -194 0 
-69 168 -169 -173 -174 -175 -176 -177 -178 -179 -180 -181 -182 -183 -184 -185 -186 -187 -190 -191 -192 -193 -194 0 
-53 76 168 -169 -173 -174 -175 -176 -177 -178 -179 -180 -181 -182 -183 -184 -185 -186 -187 -190 -191 -192 -193 -194 0 
-68 60 61 64 67 85 125 126 168 -169 -173 -174 -175 -176 -177 -178 -179 -180 -181 -182 -183 -184 -185 -186 -187 -190 -191 -192 -193 -194 0 
-70 94 -71 -72 168 -169 -173 -174 -175 -176 -177 -178 -179 -180 -181 -182 -183 -184 -185 -186 -187 -190 -191 -192 -193 -194 0 
-73 -3 7 148 170 -169 -173 -174 -175 -176 -177 -178 -179 -180 -181 -182 -183 -184 -185 -186 -187 -190 -191 -192 -193 -194 -50 -63 -78 -121 0 
-32 90 133 -74 168 -169 -173 -174 -175 -176 -177 -178 -179 -180 -181 -182 -183 -184 -185 -186 -187 -190 -191 -192 -193 -194 0 
-54 168 -169 -173 -174 -175 -176 -177 -178 -179 -180 -181 -182 -183 -184 -185 -186 -187 -190 -191 -192 -193 -194 0 
-75 1 2 18 22 24 25 26 29 30 31 33 58 62 92 93 95 113 118 170 -169 -173 -174 -175 -176 -177 -178 -179 -180 -181 -182 -183 -184 -185 -186 -187 -190 -191 -192 -193 -194 -50 -63 -78 -121 0 
-76 53 170 -169 -173 -174 -175 -176 -177 -178 -179 -180 -181 -182 -183 -184 -185 -186 -187 -190 -191 -192 -193 -194 -50 -63 -78 -121 0 
-31 1 2 18 22 24 25 26 29 30 33 58 62 75 92 93 95 113 118 170 -169 -173 -174 -175 -176 -177 -178 -179 -180 -181 -182 -183 -184 -185 -186 -187 -190 -191 -192 -193 -194 -50 -63 -78 -121 0 
-3 7 148 179 -169 -173 -174 -175 -176 -177 -178 -180 -181 -182 -183 -184 -185 -186 -187 -190 -191 -192 -193 -194 0 
-71 168 -169 -173 -174 -175 -176 -177 -178 -179 -180 -181 -182 -183 -184 -185 -186 -187 -190 -191 -192 -193 -194 0 
-77 41 51 52 56 97 103 112 120 131 143 159 161 170 -169 -173 -174 -175 -176 -177 -178 -179 -180 -181 -182 -183 -184 -185 -186 -187 -190 -191 -192 -193 -194 -50 -63 -78 -121 0 
-78 50 63 121 168 -169 -173 -174 -175 -176 -177 -178 -179 -180 -181 -182 -183 -184 -185 -186 -187 -190 -191 -192 -193 -194 0 
-24 1 2 18 22 25 26 29 30 31 33 58 62 75 92 93 95 113 118 -79 -80 168 -169 -173 -174 -175 -176 -177 -178 -179 -180 -181 -182 -183 -184 -185 -186 -187 -190 -191 -192 -193 -194 0 
-81 66 104 109 111 -82 168 -169 -173 -174 -175 -176 -177 -178 -179 -180 -181 -182 -183 -184 -185 -186 -187 -190 -191 -192 -193 -194 0 
-3 7 148 181 -169 -173 -174 -175 -176 -177 -178 -179 -180 -182 -183 -184 -185 -186 -187 -190 -191 -192 -193 -194 0 
-83 145 170 -169 -173 -174 -175 -176 -177 -178 -179 -180 -181 -182 -183 -184 -185 -186 -187 -190 -191 -192 -193 -194 -50 -63 -78 -121 0 
-84 14 36 170 -169 -173 -174 -175 -176 -177 -178 -179 -180 -181 -182 -183 -184 -185 -186 -187 -190 -191 -192 -193 -194 -50 -63 -78 -121 0 
-85 60 61 64 67 68 125 126 168 -169 -173 -174 -175 -176 -177 -178 -179 -180 -181 -182 -183 -184 -185 -186 -187 -190 -191 -192 -193 -194 0 
-83 145 168 -169 -173 -174 -175 -176 -177 -178 -179 -180 -181 -182 -183 -184 -185 -186 -187 -190 -191 -192 -193 -194 0 
-86 168 -169 -173 -174 -175 -176 -177 -178 -179 -180 -181 -182 -183 -184 -185 -186 -187 -190 -191 -192 -193 -194 0 
-87 57 168 -169 -173 -174 -175 -176 -177 -178 -179 -180 -181 -182 -183 -184 -185 -186 -187 -190 -191 -192 -193 -194 0 
-88 146 168 -169 -173 -174 -175 -176 -177 -178 -179 -180 -181 -182 -183 -184 -185 -186 -187 -190 -191 -192 -193 -194 0 
-89 8 116 -7 3 148 168 -169 -173 -174 -175 -176 -177 -178 -179 -180 -181 -182 -183 -184 -185 -186 -187 -190 -191 -192 -193 -194 0 
-53 76 -3 7 148 169 -173 -174 -175 -176 -177 -178 -179 -180 -181 -182 -183 -184 -185 -186 -187 -190 -191 -192 -193 -194 0 
-90 32 133 -91 168 -169 -173 -174 -175 -176 -177 -178 -179 -180 -181 -182 -183 -184 -185 -186 -187 -190 -191 -192 -193 -194 0 
-3 7 148 168 -169 -173 -174 -175 -176 -177 -178 -179 -180 -181 -182 -183 -184 -185 -186 -187 -190 -191 -192 -193 -194 0 
-92 1 2 18 22 24 25 26 29 30 31 33 58 62 75 93 95 113 118 170 -169 -173 -174 -175 -176 -177 -178 -179 -180 -181 -182 -183 -184 -185 -186 -187 -190 -191 -192 -193 -194 -50 -63 -78 -121 0 
-28 27 37 140 -35 170 -169 -173 -174 -175 -176 -177 -178 -179 -180 -181 -182 -183 -184 -185 -186 -187 -190 -191 -192 -193 -194 -50 -63 -78 -121 0 
-93 1 2 18 22 24 25 26 29 30 31 33 58 62 75 92 95 113 118 170 -169 -173 -174 -175 -176 -177 -178 -179 -180 -181 -182 -183 -184 -185 -186 -187 -190 -191 -192 -193 -194 -50 -63 -78 -121 0 
-28 27 37 140 168 -169 -173 -174 -175 -176 -177 -178 -179 -180 -181 -182 -183 -184 -185 -186 -187 -190 -191 -192 -193 -194 0 
-32 90 133 -48 4 136 150 154 168 -169 -173 -174 -175 -176 -177 -178 -179 -180 -181 -182 -183 -184 -185 -186 -187 -190 -191 -192 -193 -194 0 
-75 1 2 18 22 24 25 26 29 30 31 33 58 62 92 93 95 113 118 168 -169 -173 -174 -175 -176 -177 -178 -179 -180 -181 -182 -183 -184 -185 -186 -187 -190 -191 -192 -193 -194 0 
-92 1 2 18 22 24 25 26 29 30 31 33 58 62 75 93 95 113 118 168 -169 -173 -174 -175 -176 -177 -178 -179 -180 -181 -182 -183 -184 -185 -186 -187 -190 -191 -192 -193 -194 0 
-94 70 168 -169 -173 -174 -175 -176 -177 -178 -179 -180 -181 -182 -183 -184 -185 -186 -187 -190 -191 -192 -193 -194 0 
-95 1 2 18 22 24 25 26 29 30 31 33 58 62 75 92 93 113 118 168 -169 -173 -174 -175 -176 -177 -178 -179 -180 -181 -182 -183 -184 -185 -186 -187 -190 -191 -192 -193 -194 0 
-96 182 -169 -173 -174 -175 -176 -177 -178 -179 -180 -181 -183 -184 -185 -186 -187 -190 -191 -192 -193 -194 0 
-97 41 51 52 56 77 103 112 120 131 143 159 161 -98 177 -169 -173 -174 -175 -176 -178 -179 -180 -181 -182 -183 -184 -185 -186 -187 -190 -191 -192 -193 -194 0 
-99 55 110 156 183 -169 -173 -174 -175 -176 -177 -178 -179 -180 -181 -182 -184 -185 -186 -187 -190 -191 -192 -193 -194 0 
-100 15 46 168 -169 -173 -174 -175 -176 -177 -178 -179 -180 -181 -182 -183 -184 -185 -186 -187 -190 -191 -192 -193 -194 0 
-98 -101 38 144 164 -102 169 -173 -174 -175 -176 -177 -178 -179 -180 -181 -182 -183 -184 -185 -186 -187 -190 -191 -192 -193 -194 0 
-3 7 148 184 -169 -173 -174 -175 -176 -177 -178 -179 -180 -181 -182 -183 -185 -186 -187 -190 -191 -192 -193 -194 0 
-103 41 51 52 56 77 97 112 120 131 143 159 161 184 -169 -173 -174 -175 -176 -177 -178 -179 -180 -181 -182 -183 -185 -186 -187 -190 -191 -192 -193 -194 0 
-15 46 100 168 -169 -173 -174 -175 -176 -177 -178 -179 -180 -181 -182 -183 -184 -185 -186 -187 -190 -191 -192 -193 -194 0 
-104 66 81 109 111 -105 47 108 130 185 -169 -173 -174 -175 -176 -177 -178 -179 -180 -181 -182 -183 -184 -186 -187 -190 -191 -192 -193 -194 0 
-105 47 108 130 168 -169 -173 -174 -175 -176 -177 -178 -179 -180 -181 -182 -183 -184 -185 -186 -187 -190 -191 -192 -193 -194 0 
-105 47 108 130 169 -173 -174 -175 -176 -177 -178 -179 -180 -181 -182 -183 -184 -185 -186 -187 -190 -191 -192 -193 -194 0 
-106 172 -169 -173 -174 -175 -176 -177 -178 -179 -180 -181 -182 -183 -184 -185 -186 -187 -190 -191 -192 -193 -194 -119 -142 -158 -160 0 
-107 17 19 23 122 141 170 -169 -173 -174 -175 -176 -177 -178 -179 -180 -181 -182 -183 -184 -185 -186 -187 -190 -191 -192 -193 -194 -50 -63 -78 -121 0 
-89 8 116 168 -169 -173 -174 -175 -176 -177 -178 -179 -180 -181 -182 -183 -184 -185 -186 -187 -190 -191 -192 -193 -194 0 
-54 169 -173 -174 -175 -176 -177 -178 -179 -180 -181 -182 -183 -184 -185 -186 -187 -190 -191 -192 -193 -194 0 
-108 47 105 130 169 -173 -174 -175 -176 -177 -178 -179 -180 -181 -182 -183 -184 -185 -186 -187 -190 -191 -192 -193 -194 0 
-109 66 81 104 111 186 -169 -173 -174 -175 -176 -177 -178 -179 -180 -181 -182 -183 -184 -185 -187 -190 -191 -192 -193 -194 0 
-110 55 99 156 187 -169 -173 -174 -175 -176 -177 -178 -179 -180 -181 -182 -183 -184 -185 -186 -190 -191 -192 -193 -194 0 
-111 66 81 104 109 170 -169 -173 -174 -175 -176 -177 -178 -179 -180 -181 -182 -183 -184 -185 -186 -187 -190 -191 -192 -193 -194 -50 -63 -78 -121 0 
-112 41 51 52 56 77 97 103 120 131 143 159 161 168 -169 -173 -174 -175 -176 -177 -178 -179 -180 -181 -182 -183 -184 -185 -186 -187 -190 -191 -192 -193 -194 0 
-60 61 64 67 68 85 125 126 -3 7 148 174 -169 -173 -175 -176 -177 -178 -179 -180 -181 -182 -183 -184 -185 -186 -187 -190 -191 -192 -193 -194 0 
-113 1 2 18 22 24 25 26 29 30 31 33 58 62 75 92 93 95 118 168 -169 -173 -174 -175 -176 -177 -178 -179 -180 -181 -182 -183 -184 -185 -186 -187 -190 -191 -192 -193 -194 0 
-114 12 21 157 162 168 -169 -173 -174 -175 -176 -177 -178 -179 -180 -181 -182 -183 -184 -185 -186 -187 -190 -191 -192 -193 -194 0 
-32 90 133 188 -1 -2 -18 -22 -24 -25 -26 -29 -30 -31 -33 -58 -62 -75 -92 -93 -95 -113 -118 -169 -173 -174 -175 -176 -177 -178 -179 -180 -181 -182 -183 -184 -185 -186 -187 -190 -191 -192 -193 -194 0 
-115 137 168 -169 -173 -174 -175 -176 -177 -178 -179 -180 -181 -182 -183 -184 -185 -186 -187 -190 -191 -192 -193 -194 0 
-115 137 170 -169 -173 -174 -175 -176 -177 -178 -179 -180 -181 -182 -183 -184 -185 -186 -187 -190 -191 -192 -193 -194 -50 -63 -78 -121 0 
-116 8 89 -105 47 108 130 -117 174 -169 -173 -175 -176 -177 -178 -179 -180 -181 -182 -183 -184 -185 -186 -187 -190 -191 -192 -193 -194 0 
-115 137 -43 65 189 -171 -195 0 
-59 188 -1 -2 -18 -22 -24 -25 -26 -29 -30 -31 -33 -58 -62 -75 -92 -93 -95 -113 -118 -169 -173 -174 -175 -176 -177 -178 -179 -180 -181 -182 -183 -184 -185 -186 -187 -190 -191 -192 -193 -194 0 
-118 1 2 18 22 24 25 26 29 30 31 33 58 62 75 92 93 95 113 190 -169 -173 -174 -175 -176 -177 -178 -179 -180 -181 -182 -183 -184 -185 -186 -187 -191 -192 -193 -194 0 
-46 15 100 -53 76 -54 168 -169 -173 -174 -175 -176 -177 -178 -179 -180 -181 -182 -183 -184 -185 -186 -187 -190 -191 -192 -193 -194 0 
-119 142 158 160 170 -169 -173 -174 -175 -176 -177 -178 -179 -180 -181 -182 -183 -184 -185 -186 -187 -190 -191 -192 -193 -194 -50 -63 -78 -121 0 
-120 41 51 52 56 77 97 103 112 131 143 159 161 183 -169 -173 -174 -175 -176 -177 -178 -179 -180 -181 -182 -184 -185 -186 -187 -190 -191 -192 -193 -194 0 
-121 50 63 78 191 -169 -173 -174 -175 -176 -177 -178 -179 -180 -181 -182 -183 -184 -185 -186 -187 -190 -192 -193 -194 0 
-122 17 19 23 107 141 168 -169 -173 -174 -175 -176 -177 -178 -179 -180 -181 -182 -183 -184 -185 -186 -187 -190 -191 -192 -193 -194 0 
-93 1 2 18 22 24 25 26 29 30 31 33 58 62 75 92 95 113 118 168 -169 -173 -174 -175 -176 -177 -178 -179 -180 -181 -182 -183 -184 -185 -186 -187 -190 -191 -192 -193 -194 0 
-101 38 144 164 -123 168 -169 -173 -174 -175 -176 -177 -178 -179 -180 -181 -182 -183 -184 -185 -186 -187 -190 -191 -192 -193 -194 0 
-3 7 148 -54 168 -169 -173 -174 -175 -176 -177 -178 -179 -180 -181 -182 -183 -184 -185 -186 -187 -190 -191 -192 -193 -194 0 
-124 -125 60 61 64 67 68 85 126 184 -169 -173 -174 -175 -176 -177 -178 -179 -180 -181 -182 -183 -185 -186 -187 -190 -191 -192 -193 -194 0 
-126 60 61 64 67 68 85 125 184 -169 -173 -174 -175 -176 -177 -178 -179 -180 -181 -182 -183 -185 -186 -187 -190 -191 -192 -193 -194 0 
-44 -88 146 170 -169 -173 -174 -175 -176 -177 -178 -179 -180 -181 -182 -183 -184 -185 -186 -187 -190 -191 -192 -193 -194 -50 -63 -78 -121 0 
-86 -85 60 61 64 67 68 125 126 170 -169 -173 -174 -175 -176 -177 -178 -179 -180 -181 -182 -183 -184 -185 -186 -187 -190 -191 -192 -193 -194 -50 -63 -78 -121 0 
-127 -87 57 170 -169 -173 -174 -175 -176 -177 -178 -179 -180 -181 -182 -183 -184 -185 -186 -187 -190 -191 -192 -193 -194 -50 -63 -78 -121 0 
-83 145 169 -173 -174 -175 -176 -177 -178 -179 -180 -181 -182 -183 -184 -185 -186 -187 -190 -191 -192 -193 -194 0 
-20 135 -86 170 -169 -173 -174 -175 -176 -177 -178 -179 -180 -181 -182 -183 -184 -185 -186 -187 -190 -191 -192 -193 -194 -50 -63 -78 -121 0 
-86 -128 170 -169 -173 -174 -175 -176 -177 -178 -179 -180 -181 -182 -183 -184 -185 -186 -187 -190 -191 -192 -193 -194 -50 -63 -78 -121 0 
-129 -10 168 -169 -173 -174 -175 -176 -177 -178 -179 -180 -181 -182 -183 -184 -185 -186 -187 -190 -191 -192 -193 -194 0 
-44 -10 168 -169 -173 -174 -175 -176 -177 -178 -179 -180 -181 -182 -183 -184 -185 -186 -187 -190 -191 -192 -193 -194 0 
-13 169 -173 -174 -175 -176 -177 -178 -179 -180 -181 -182 -183 -184 -185 -186 -187 -190 -191 -192 -193 -194 0 
-130 47 105 108 -46 15 100 168 -169 -173 -174 -175 -176 -177 -178 -179 -180 -181 -182 -183 -184 -185 -186 -187 -190 -191 -192 -193 -194 0 
-57 87 168 -169 -173 -174 -175 -176 -177 -178 -179 -180 -181 -182 -183 -184 -185 -186 -187 -190 -191 -192 -193 -194 0 
-131 41 51 52 56 77 97 103 112 120 143 159 161 179 -169 -173 -174 -175 -176 -177 -178 -180 -181 -182 -183 -184 -185 -186 -187 -190 -191 -192 -193 -194 0 
-70 94 -132 147 163 167 168 -169 -173 -174 -175 -176 -177 -178 -179 -180 -181 -182 -183 -184 -185 -186 -187 -190 -191 -192 -193 -194 0 
-133 32 90 -134 170 -169 -173 -174 -175 -176 -177 -178 -179 -180 -181 -182 -183 -184 -185 -186 -187 -190 -191 -192 -193 -194 -50 -63 -78 -121 0 
-20 135 -82 168 -169 -173 -174 -175 -176 -177 -178 -179 -180 -181 -182 -183 -184 -185 -186 -187 -190 -191 -192 -193 -194 0 
-135 20 -3 7 148 -136 4 48 150 154 168 -169 -173 -174 -175 -176 -177 -178 -179 -180 -181 -182 -183 -184 -185 -186 -187 -190 -191 -192 -193 -194 0 
-20 135 -137 115 -138 -134 170 -169 -173 -174 -175 -176 -177 -178 -179 -180 -181 -182 -183 -184 -185 -186 -187 -190 -191 -192 -193 -194 -50 -63 -78 -121 0 
-70 94 -3 7 148 -139 168 -169 -173 -174 -175 -176 -177 -178 -179 -180 -181 -182 -183 -184 -185 -186 -187 -190 -191 -192 -193 -194 0 
-70 94 -3 7 148 -139 170 -169 -173 -174 -175 -176 -177 -178 -179 -180 -181 -182 -183 -184 -185 -186 -187 -190 -191 -192 -193 -194 -50 -63 -78 -121 0 
-20 135 -137 115 -80 -82 168 -169 -173 -174 -175 -176 -177 -178 -179 -180 -181 -182 -183 -184 -185 -186 -187 -190 -191 -192 -193 -194 0 
-140 27 28 37 -54 168 -169 -173 -174 -175 -176 -177 -178 -179 -180 -181 -182 -183 -184 -185 -186 -187 -190 -191 -192 -193 -194 0 
-2 1 18 22 24 25 26 29 30 31 33 58 62 75 92 93 95 113 118 169 -173 -174 -175 -176 -177 -178 -179 -180 -181 -182 -183 -184 -185 -186 -187 -190 -191 -192 -193 -194 0 
-9 168 -169 -173 -174 -175 -176 -177 -178 -179 -180 -181 -182 -183 -184 -185 -186 -187 -190 -191 -192 -193 -194 0 
-141 17 19 23 107 122 168 -169 -173 -174 -175 -176 -177 -178 -179 -180 -181 -182 -183 -184 -185 -186 -187 -190 -191 -192 -193 -194 0 
-47 105 108 130 188 -1 -2 -18 -22 -24 -25 -26 -29 -30 -31 -33 -58 -62 -75 -92 -93 -95 -113 -118 -169 -173 -174 -175 -176 -177 -178 -179 -180 -181 -182 -183 -184 -185 -186 -187 -190 -191 -192 -193 -194 0 
-142 119 158 160 169 -173 -174 -175 -176 -177 -178 -179 -180 -181 -182 -183 -184 -185 -186 -187 -190 -191 -192 -193 -194 0 
-142 119 158 160 168 -169 -173 -174 -175 -176 -177 -178 -179 -180 -181 -182 -183 -184 -185 -186 -187 -190 -191 -192 -193 -194 0 
-143 41 51 52 56 77 97 103 112 120 131 159 161 192 -169 -173 -174 -175 -176 -177 -178 -179 -180 -181 -182 -183 -184 -185 -186 -187 -190 -191 -193 -194 0 
-144 38 101 164 -54 168 -169 -173 -174 -175 -176 -177 -178 -179 -180 -181 -182 -183 -184 -185 -186 -187 -190 -191 -192 -193 -194 0 
-115 137 -129 -10 168 -169 -173 -174 -175 -176 -177 -178 -179 -180 -181 -182 -183 -184 -185 -186 -187 -190 -191 -192 -193 -194 0 
-65 43 -10 168 -169 -173 -174 -175 -176 -177 -178 -179 -180 -181 -182 -183 -184 -185 -186 -187 -190 -191 -192 -193 -194 0 
-145 83 168 -169 -173 -174 -175 -176 -177 -178 -179 -180 -181 -182 -183 -184 -185 -186 -187 -190 -191 -192 -193 -194 0 
-146 88 170 -169 -173 -174 -175 -176 -177 -178 -179 -180 -181 -182 -183 -184 -185 -186 -187 -190 -191 -192 -193 -194 -50 -63 -78 -121 0 
-115 137 -147 132 163 167 170 -169 -173 -174 -175 -176 -177 -178 -179 -180 -181 -182 -183 -184 -185 -186 -187 -190 -191 -192 -193 -194 -50 -63 -78 -121 0 
-115 137 -147 132 163 167 168 -169 -173 -174 -175 -176 -177 -178 -179 -180 -181 -182 -183 -184 -185 -186 -187 -190 -191 -192 -193 -194 0 
-148 3 7 -149 165 166 168 -169 -173 -174 -175 -176 -177 -178 -179 -180 -181 -182 -183 -184 -185 -186 -187 -190 -191 -192 -193 -194 0 
-3 7 148 -54 -150 4 48 136 154 193 -169 -173 -174 -175 -176 -177 -178 -179 -180 -181 -182 -183 -184 -185 -186 -187 -190 -191 -192 -194 0 
-151 169 -173 -174 -175 -176 -177 -178 -179 -180 -181 -182 -183 -184 -185 -186 -187 -190 -191 -192 -193 -194 0 
-65 43 -152 168 -169 -173 -174 -175 -176 -177 -178 -179 -180 -181 -182 -183 -184 -185 -186 -187 -190 -191 -192 -193 -194 0 
-127 -108 47 105 130 169 -173 -174 -175 -176 -177 -178 -179 -180 -181 -182 -183 -184 -185 -186 -187 -190 -191 -192 -193 -194 0 
-46 15 100 -153 169 -173 -174 -175 -176 -177 -178 -179 -180 -181 -182 -183 -184 -185 -186 -187 -190 -191 -192 -193 -194 0 
-127 -108 47 105 130 168 -169 -173 -174 -175 -176 -177 -178 -179 -180 -181 -182 -183 -184 -185 -186 -187 -190 -191 -192 -193 -194 0 
-3 7 148 -154 4 48 136 150 -155 6 49 168 -169 -173 -174 -175 -176 -177 -178 -179 -180 -181 -182 -183 -184 -185 -186 -187 -190 -191 -192 -193 -194 0 
-156 55 99 110 194 -169 -173 -174 -175 -176 -177 -178 -179 -180 -181 -182 -183 -184 -185 -186 -187 -190 -191 -192 -193 0 
-23 17 19 107 122 141 169 -173 -174 -175 -176 -177 -178 -179 -180 -181 -182 -183 -184 -185 -186 -187 -190 -191 -192 -193 -194 0 
-157 12 21 114 162 168 -169 -173 -174 -175 -176 -177 -178 -179 -180 -181 -182 -183 -184 -185 -186 -187 -190 -191 -192 -193 -194 0 
-105 47 108 130 -54 169 -173 -174 -175 -176 -177 -178 -179 -180 -181 -182 -183 -184 -185 -186 -187 -190 -191 -192 -193 -194 0 
-105 47 108 130 -54 168 -169 -173 -174 -175 -176 -177 -178 -179 -180 -181 -182 -183 -184 -185 -186 -187 -190 -191 -192 -193 -194 0 
-29 1 2 18 22 24 25 26 30 31 33 58 62 75 92 93 95 113 118 169 -173 -174 -175 -176 -177 -178 -179 -180 -181 -182 -183 -184 -185 -186 -187 -190 -191 -192 -193 -194 0 
-46 15 100 -54 168 -169 -173 -174 -175 -176 -177 -178 -179 -180 -181 -182 -183 -184 -185 -186 -187 -190 -191 -192 -193 -194 0 
-158 119 142 160 191 -169 -173 -174 -175 -176 -177 -178 -179 -180 -181 -182 -183 -184 -185 -186 -187 -190 -192 -193 -194 0 
-159 41 51 52 56 77 97 103 112 120 131 143 161 180 -169 -173 -174 -175 -176 -177 -178 -179 -181 -182 -183 -184 -185 -186 -187 -190 -191 -192 -193 -194 0 
-46 15 100 168 -169 -173 -174 -175 -176 -177 -178 -179 -180 -181 -182 -183 -184 -185 -186 -187 -190 -191 -192 -193 -194 0 
-160 119 142 158 169 -173 -174 -175 -176 -177 -178 -179 -180 -181 -182 -183 -184 -185 -186 -187 -190 -191 -192 -193 -194 0 
-161 41 51 52 56 77 97 103 112 120 131 143 159 190 -169 -173 -174 -175 -176 -177 -178 -179 -180 -181 -182 -183 -184 -185 -186 -187 -191 -192 -193 -194 0 
-13 170 -169 -173 -174 -175 -176 -177 -178 -179 -180 -181 -182 -183 -184 -185 -186 -187 -190 -191 -192 -193 -194 -50 -63 -78 -121 0 
-90 32 133 -74 168 -169 -173 -174 -175 -176 -177 -178 -179 -180 -181 -182 -183 -184 -185 -186 -187 -190 -191 -192 -193 -194 0 
-162 12 21 114 157 -163 132 147 167 170 -169 -173 -174 -175 -176 -177 -178 -179 -180 -181 -182 -183 -184 -185 -186 -187 -190 -191 -192 -193 -194 -50 -63 -78 -121 0 
-3 7 148 195 -171 -189 0 
-164 38 101 144 -133 32 90 -82 168 -169 -173 -174 -175 -176 -177 -178 -179 -180 -181 -182 -183 -184 -185 -186 -187 -190 -191 -192 -193 -194 0 
-53 76 -7 3 148 168 -169 -173 -174 -175 -176 -177 -178 -179 -180 -181 -182 -183 -184 -185 -186 -187 -190 -191 -192 -193 -194 0 
-80 -82 168 -169 -173 -174 -175 -176 -177 -178 -179 -180 -181 -182 -183 -184 -185 -186 -187 -190 -191 -192 -193 -194 0 
-138 -134 170 -169 -173 -174 -175 -176 -177 -178 -179 -180 -181 -182 -183 -184 -185 -186 -187 -190 -191 -192 -193 -194 -50 -63 -78 -121 0 
-32 90 133 -82 -165 149 166 168 -169 -173 -174 -175 -176 -177 -178 -179 -180 -181 -182 -183 -184 -185 -186 -187 -190 -191 -192 -193 -194 0 
-122 17 19 23 107 141 170 -169 -173 -174 -175 -176 -177 -178 -179 -180 -181 -182 -183 -184 -185 -186 -187 -190 -191 -192 -193 -194 -50 -63 -78 -121 0 
-3 7 148 -35 -166 149 165 173 -169 -174 -175 -176 -177 -178 -179 -180 -181 -182 -183 -184 -185 -186 -187 -190 -191 -192 -193 -194 0 
-145 83 170 -169 -173 -174 -175 -176 -177 -178 -179 -180 -181 -182 -183 -184 -185 -186 -187 -190 -191 -192 -193 -194 -50 -63 -78 -121 0 
-129 -11 170 -169 -173 -174 -175 -176 -177 -178 -179 -180 -181 -182 -183 -184 -185 -186 -187 -190 -191 -192 -193 -194 -50 -63 -78 -121 0 
-167 132 147 163 168 -169 -173 -174 -175 -176 -177 -178 -179 -180 -181 -182 -183 -184 -185 -186 -187 -190 -191 -192 -193 -194 0 
-37 27 28 140 -134 170 -169 -173 -174 -175 -176 -177 -178 -179 -180 -181 -182 -183 -184 -185 -186 -187 -190 -191 -192 -193 -194 -50 -63 -78 -121 0 
